letting initialStacks = [28, 38, 37, 44, 27, 26, 32, 9, 51, 5, 23, 48, 40, 11, 30, 19, 39, 15, 46, 18, 36, 20, 47, 1, 12, 41, 33, 31, 45, 34, 16, 13, 17, 42, 22, 21, 50, 10, 24, 35, 3, 7, 6, 29, 4, 8, 14, 25, 2, 43, 49]
